
Gurobi 12.0.2 (win64) logging started Mon Nov  3 17:45:58 2025

Set parameter LogFile to value "resultados DATA_1_n10m05b2d2\instancia_1_log.txt"
Set parameter TimeLimit to value 1800
Gurobi Optimizer version 12.0.2 build v12.0.2rc0 (win64 - Windows 10.0 (19045.2))

CPU model: Intel(R) Core(TM) i5-6300U CPU @ 2.40GHz, instruction set [SSE2|AVX|AVX2]
Thread count: 2 physical cores, 4 logical processors, using up to 4 threads

Non-default parameters:
TimeLimit  1800

Optimize a model with 197 rows, 366 columns and 8980 nonzeros
Model fingerprint: 0x21f89b66
Variable types: 0 continuous, 366 integer (366 binary)
Coefficient statistics:
  Matrix range     [1e+00, 1e+00]
  Objective range  [4e-02, 2e-01]
  Bounds range     [1e+00, 1e+00]
  RHS range        [1e+00, 6e+00]
Found heuristic solution: objective 0.7040000
Presolve removed 38 rows and 230 columns
Presolve time: 0.05s
Presolved: 159 rows, 136 columns, 2616 nonzeros
Found heuristic solution: objective 0.5600000
Variable types: 0 continuous, 136 integer (136 binary)

Root relaxation: objective 8.090000e-01, 132 iterations, 0.02 seconds (0.00 work units)

    Nodes    |    Current Node    |     Objective Bounds      |     Work
 Expl Unexpl |  Obj  Depth IntInf | Incumbent    BestBd   Gap | It/Node Time

     0     0    0.80900    0   25    0.70400    0.80900  14.9%     -    0s
H    0     0                       0.7760000    0.80900  4.25%     -    0s
     0     0     cutoff    0         0.77600    0.77600  0.00%     -    0s

Cutting planes:
  Gomory: 4
  Clique: 6
  MIR: 3
  Zero half: 8
  Relax-and-lift: 1

Explored 1 nodes (213 simplex iterations) in 0.17 seconds (0.02 work units)
Thread count was 4 (of 4 available processors)

Solution count 3: 0.776 0.704 0.56 
No other solutions better than 0.776

Optimal solution found (tolerance 1.00e-04)
Best objective 7.760000000000e-01, best bound 7.760000000000e-01, gap 0.0000%
